File : Instances/p67
Used 68s
27487

0 0 0 0 1 1 1 0 1 0 1 0 0 1 0 0 0 0 1 0 0 1 1 0 0 1 0 0 1 0 
18 6 21 22 5 6 21 18 22 28 4 28 13 13 28 18 13 10 22 28 18 21 5 21 10 18 22 8 4 5 6 6 4 21 18 6 8 8 22 21 18 8 6 4 8 4 13 21 28 10 21 22 21 21 8 6 18 8 18 25 4 5 18 8 13 25 5 10 28 25 18 25 6 8 10 13 13 10 8 22 10 10 8 25 4 13 6 5 22 25 28 6 25 25 5 13 28 6 5 28 28 21 25 18 4 5 4 22 22 13 6 4 18 6 6 8 28 25 28 8 8 25 28 4 4 21 5 25 4 28 28 21 25 10 13 8 13 13 28 10 6 22 28 25 25 5 22 21 22 25 22 10 10 28 8 28 5 21 13 13 13 28 13 22 5 18 5 4 13 21 5 8 28 10 4 5 22 10 4 10 5 21 21 6 6 8 28 10 28 21 5 21 6 4 25 6 25 21 10 6 
